
Gurobi 9.1.2 (linux64, gurobi_cl) logging started Fri Jul 30 13:53:28 2021

Using license file /opt/gurobi/gurobi.lic
Set parameter TimeLimit to value 600
Set parameter MIPFocus to value 2
Set parameter LogFile to value 912-MIPFocus2-glass4-1.log
Set parameter Seed to value 1

Gurobi Optimizer version 9.1.2 build v9.1.2rc0 (linux64)
Copyright (c) 2021, Gurobi Optimization, LLC

Read MPS format model from file /nfs/models/mip/glass4.mps.bz2
Reading time = 0.00 seconds
glass4: 396 rows, 322 columns, 1815 nonzeros
Thread count: 4 physical cores, 8 logical processors, using up to 8 threads
Optimize a model with 396 rows, 322 columns and 1815 nonzeros
Model fingerprint: 0x0a9d9037
Variable types: 20 continuous, 302 integer (0 binary)
Coefficient statistics:
  Matrix range     [1e+00, 8e+06]
  Objective range  [1e+00, 1e+06]
  Bounds range     [1e+00, 8e+02]
  RHS range        [1e+00, 8e+06]
Presolve removed 6 rows and 6 columns
Presolve time: 0.00s
Presolved: 390 rows, 316 columns, 1803 nonzeros
Variable types: 19 continuous, 297 integer (297 binary)
Found heuristic solution: objective 3.133356e+09
Presolved: 390 rows, 316 columns, 1803 nonzeros


Root relaxation: objective 8.000024e+08, 36 iterations, 0.00 seconds

    Nodes    |    Current Node    |     Objective Bounds      |     Work
 Expl Unexpl |  Obj  Depth IntInf | Incumbent    BestBd   Gap | It/Node Time

     0     0 8.0000e+08    0   72 3.1334e+09 8.0000e+08  74.5%     -    0s
H    0     0                    2.550020e+09 8.0000e+08  68.6%     -    0s
H    0     0                    2.100018e+09 8.0000e+08  61.9%     -    0s
     0     0 8.0000e+08    0   72 2.1000e+09 8.0000e+08  61.9%     -    0s
     0     0 8.0000e+08    0   80 2.1000e+09 8.0000e+08  61.9%     -    0s
     0     0 8.0000e+08    0   78 2.1000e+09 8.0000e+08  61.9%     -    0s
H    0     0                    1.900018e+09 8.0000e+08  57.9%     -    0s
     0     2 8.0000e+08    0   76 1.9000e+09 8.0000e+08  57.9%     -    0s
H  115   162                    1.800017e+09 8.0000e+08  55.6%  17.5    0s
H 1106   880                    1.750017e+09 8.0000e+08  54.3%  10.6    0s
H 1111   839                    1.700015e+09 8.0000e+08  52.9%  10.5    0s
H 1188   852                    1.633348e+09 8.0001e+08  51.0%  12.5    0s
H 1252   857                    1.633347e+09 8.0001e+08  51.0%  13.5    1s
H 1253   819                    1.600014e+09 8.0001e+08  50.0%  13.5    1s
H 1258   802                    1.575014e+09 8.0001e+08  49.2%  13.5    1s
H 1268   764                    1.516681e+09 8.0001e+08  47.3%  13.6    1s
H 1949   940                    1.500014e+09 8.0001e+08  46.7%  19.4    2s
H 1955   830                    1.483347e+09 8.0001e+08  46.1%  19.5    2s
  4916  1892 1.4000e+09   50   52 1.4833e+09 8.1343e+08  45.2%  39.0    5s
*12680  5176              52    1.480016e+09 9.0001e+08  39.2%  44.2    9s
 13450  5599 1.0111e+09   36   82 1.4800e+09 9.0001e+08  39.2%  44.3   10s
H18693  7222                    1.400019e+09 9.0001e+08  35.7%  42.1   12s
H19128  6076                    1.366682e+09 9.0001e+08  34.1%  42.4   12s
H19586  5726                    1.300014e+09 9.0001e+08  30.8%  42.5   13s
H19745  4799                    1.200013e+09 9.0001e+08  25.0%  42.7   13s
 22588  2342 1.0857e+09   38   80 1.2000e+09 1.0000e+09  16.7%  46.0   15s

Cutting planes:
  Gomory: 104
  Cover: 315
  Implied bound: 239
  Projected implied bound: 5
  Clique: 1
  MIR: 65
  Flow cover: 561
  Inf proof: 29
  RLT: 72
  Relax-and-lift: 213

Explored 24738 nodes (1099548 simplex iterations) in 15.61 seconds
Thread count was 8 (of 8 available processors)

Solution count 10: 1.20001e+09 1.30001e+09 1.36668e+09 ... 1.60001e+09

Optimal solution found (tolerance 1.00e-04)
Best objective 1.200012600000e+09, best bound 1.200003800000e+09, gap 0.0007%
